
******************************************************************************
This program contains Ipopt, a library for large-scale nonlinear optimization.
 Ipopt is released as open source code under the Eclipse Public License (EPL).
         For more information visit http://projects.coin-or.org/Ipopt

This version of Ipopt was compiled from source code available at
    https://github.com/IDAES/Ipopt as part of the Institute for the Design of
    Advanced Energy Systems Process Systems Engineering Framework (IDAES PSE
    Framework) Copyright (c) 2018-2019. See https://github.com/IDAES/idaes-pse.

This version of Ipopt was compiled using HSL, a collection of Fortran codes
    for large-scale scientific computation.  All technical papers, sales and
    publicity material resulting from use of the HSL codes within IPOPT must
    contain the following acknowledgement:
        HSL, a collection of Fortran codes for large-scale scientific
        computation. See http://www.hsl.rl.ac.uk.
******************************************************************************

This is Ipopt version 3.13.2, running with linear solver ma27.

Number of nonzeros in equality constraint Jacobian...:      958
Number of nonzeros in inequality constraint Jacobian.:        0
Number of nonzeros in Lagrangian Hessian.............:      832

Total number of variables............................:      416
                     variables with only lower bounds:      128
                variables with lower and upper bounds:      224
                     variables with only upper bounds:        0
Total number of equality constraints.................:      415
Total number of inequality constraints...............:        0
        inequality constraints with only lower bounds:        0
   inequality constraints with lower and upper bounds:        0
        inequality constraints with only upper bounds:        0

iter    objective    inf_pr   inf_du lg(mu)  ||d||  lg(rg) alpha_du alpha_pr  ls
   0  0.0000000e+00 4.56e-01 1.44e-15  -1.0 0.00e+00    -  0.00e+00 0.00e+00   0
   1  2.1186973e-01 2.80e-01 1.79e+03  -1.0 1.18e+05    -  6.45e-01 2.95e-01h  1
   2  2.1784467e-01 2.78e-01 1.78e+03  -1.0 7.20e+04    -  8.35e-01 5.96e-03h  1
   3  6.5881866e+00 1.55e-02 2.31e+04  -1.0 1.48e+05    -  8.41e-01 9.90e-01h  1
   4  7.8398659e+00 2.93e-04 7.52e+02  -1.0 1.77e+04    -  9.74e-01 9.90e-01h  1
   5  7.8659997e+00 2.99e-06 7.63e+00  -1.0 4.12e+02    -  9.90e-01 9.90e-01h  1
   6  7.8661574e+00 2.98e-06 1.41e+07  -1.0 1.60e+03    -  9.90e-01 1.93e-03f 10
   7  7.8681533e+00 2.94e-06 2.78e+07  -1.0 2.54e+03    -  9.91e-01 1.55e-02f  7
   8  7.9937195e+00 6.87e-07 4.23e+05  -1.0 2.48e+03    -  1.00e+00 9.90e-01H  1
   9  7.9951632e+00 9.18e-09 1.45e+07  -1.0 2.84e+01    -  1.00e+00 9.90e-01h  1
iter    objective    inf_pr   inf_du lg(mu)  ||d||  lg(rg) alpha_du alpha_pr  ls
  10  7.9951784e+00 9.17e-11 1.45e+09  -1.0 3.00e-01    -  1.00e+00 9.90e-01h  1
  11  7.9951786e+00 4.26e-11 1.45e+11  -1.0 3.00e-03    -  1.00e+00 9.90e-01h  1
In iteration 11, 32 Slacks too small, adjusting variable bounds
  12  7.9951786e+00 7.87e-11 1.45e+13  -1.0 3.00e-05    -  1.00e+00 9.90e-01h  1
  13  7.9951786e+00 7.97e-11 8.98e-02  -1.0 4.17e-07    -  1.00e+00 1.00e+00h  1
  14  7.9951140e+00 4.42e-12 1.47e+13  -9.0 3.28e+03    -  9.96e-01 3.84e-04f 12
  15  7.9951140e+00 1.45e-11 1.48e+13  -9.0 2.64e+03    -  9.98e-01 2.33e-07f 23
  16  7.9950978e+00 1.40e-11 1.48e+13  -9.0 2.58e+03    -  1.00e+00 1.22e-04f 14
  17  7.9950978e+00 1.54e-11 1.48e+13  -9.0 2.58e+03    -  1.00e+00 1.86e-09f 30
  18  7.9950978e+00 1.64e-11 1.48e+13  -9.0 2.58e+03    -  1.00e+00 9.31e-10f 31
  19  7.8637490e+00 1.77e-05 1.21e+07  -9.0 2.58e+03    -  1.00e+00 1.00e+00f  1
iter    objective    inf_pr   inf_du lg(mu)  ||d||  lg(rg) alpha_du alpha_pr  ls
  20  7.8638947e+00 4.23e-10 3.20e-06  -9.0 5.02e+00    -  1.00e+00 1.00e+00h  1
  21  7.8638947e+00 8.14e-12 5.82e-11  -9.0 1.87e-05    -  1.00e+00 1.00e+00h  1

Number of Iterations....: 21

                                   (scaled)                 (unscaled)
Objective...............:   7.8638947344822627e+00    7.8638947344822627e+00
Dual infeasibility......:   5.8207660913467407e-11    5.8207660913467407e-11
Constraint violation....:   8.1352702352432971e-12    8.1352702352432971e-12
Complementarity.........:   9.0909117077640822e-10    9.0909117077640822e-10
Overall NLP error.......:   1.2275336053007838e-11    9.0909117077640822e-10


Number of objective function evaluations             = 163
Number of objective gradient evaluations             = 22
Number of equality constraint evaluations            = 163
Number of inequality constraint evaluations          = 0
Number of equality constraint Jacobian evaluations   = 22
Number of inequality constraint Jacobian evaluations = 0
Number of Lagrangian Hessian evaluations             = 21
Total CPU secs in IPOPT (w/o function evaluations)   =      0.036
Total CPU secs in NLP function evaluations           =      0.987

EXIT: Optimal Solution Found.
